
#Data file

set PRODUCTS := KNEE_IMPLANT HIP_IMPLANT;                          #Set of products

#Set of all the hospitals considered
set HOSPITALS := Brigham_and_Womens_Faulkner_Hospital	Brigham_and_Womens_Hospital	Massachusetts_General_Hospital	New_England_Baptist_Hospital	Beth_Israel_Deaconess_Medical_Center	Boston_Medical_Center	Mount_Auburn_Hospital	Lahey_Hospital_and_Medical_Center	Tufts_Medical_Center	Carney_Hospital;

#Demand of each product at the hospitals
param demand_hosp (tr): Brigham_and_Womens_Faulkner_Hospital	Brigham_and_Womens_Hospital	Massachusetts_General_Hospital	New_England_Baptist_Hospital	Beth_Israel_Deaconess_Medical_Center Boston_Medical_Center Mount_Auburn_Hospital Lahey_Hospital_and_Medical_Center	Tufts_Medical_Center	Carney_Hospital:= 
			KNEE_IMPLANT	538	737	820	3197	470	297	236	594	261	76
			HIP_IMPLANT	251	666	857	2836	317 214	182	561	252	18;

#Distance between the hospitals
param dist_betwn_hosp (tr): Brigham_and_Womens_Faulkner_Hospital	Brigham_and_Womens_Hospital	Massachusetts_General_Hospital	New_England_Baptist_Hospital	Beth_Israel_Deaconess_Medical_Center Boston_Medical_Center Mount_Auburn_Hospital	Lahey_Hospital_and_Medical_Center	Tufts_Medical_Center	Carney_Hospital:=
			Brigham_and_Womens_Faulkner_Hospital	0	3.3	7	3.3	3.1	5.2	7.5	22.1	6	5.1	
			Brigham_and_Womens_Hospital	3.3	0	3.3	3.4	0.7	2.4	4	22.9	2.7	6.7
			Massachusetts_General_Hospital	7	3.3	0	3.9	5.4	4.2	5.9	16.4	1.4	9
			New_England_Baptist_Hospital	3.3	3.4	3.9	0	3.9	2.6	21.2	23.1	2.8	6.7
			Beth_Israel_Deaconess_Medical_Center	3.1	0.7	5.4	3.9	0	2.9	4.7	21.2	3	6.6
			Boston_Medical_Center	5.2	2.4	4.2	2.6	2.9	0	7.4	18.8	1.3	6.5
			Mount_Auburn_Hospital	7.5	4	5.9	21.2	4.7	7.4	0	16.2	5.5	12
			Lahey_Hospital_and_Medical_Center	22.1	22.9	16.4	23.1	21.2	18.8	16.2	0	25	35
			Tufts_Medical_Center	6	2.7	1.4	2.8	3	1.3	5.5	25	0	6.6
			Carney_Hospital	5.1	6.7	9	6.7	6.6	6.5	12	35	6.6	0;

#Maximum production time per product in hours and maximum permissible number of equipments at each hospital
param : total_prod_time max_equip_allowed :=
			Brigham_and_Womens_Faulkner_Hospital	7200	2	
			Brigham_and_Womens_Hospital 7200	2
			Massachusetts_General_Hospital	7200	2
			New_England_Baptist_Hospital	7200	5
			Beth_Israel_Deaconess_Medical_Center	7200	2
			Boston_Medical_Center 7200	1
			Mount_Auburn_Hospital 7200	1
			Lahey_Hospital_and_Medical_Center	7200	1
			Tufts_Medical_Center	7200	1
			Carney_Hospital	7200	1;

#Processing time, the weight and the maximum capacity of the equipment
param : processing_time weight max_equip_capacity :=
	KNEE_IMPLANT 3	1.5 2400
	HIP_IMPLANT	8	4 900;


#Production cost of each product at the hospitals
param prod_cost (tr): Brigham_and_Womens_Faulkner_Hospital	Brigham_and_Womens_Hospital	Massachusetts_General_Hospital	New_England_Baptist_Hospital	Beth_Israel_Deaconess_Medical_Center Boston_Medical_Center	Mount_Auburn_Hospital	Lahey_Hospital_and_Medical_Center	Tufts_Medical_Center	Carney_Hospital:=
 		KNEE_IMPLANT	75	75	75	75	75	75	75	75	75	75
 		HIP_IMPLANT	200	200	200	200 200 200	200	200	200	200;

#Operating cost of each product at the hospitals
param operating_cost (tr): Brigham_and_Womens_Faulkner_Hospital	Brigham_and_Womens_Hospital Massachusetts_General_Hospital	New_England_Baptist_Hospital	Beth_Israel_Deaconess_Medical_Center Boston_Medical_Center	Mount_Auburn_Hospital	Lahey_Hospital_and_Medical_Center	Tufts_Medical_Center	Carney_Hospital:=
 		KNEE_IMPLANT	41	43	45	42	43	42	45	47	41	39
 		HIP_IMPLANT	41	43	45 42	 43	42	45	47	41	39;
 		
param setup_cost default 579845;                            #Setup cost of the AM centre

param transportation_cost default 0.5;                      #Trasportation cost per mile per pound